treewidth/data/WienerArayaGraph.gr
p tw 42 67
1 2
1 24
1 35
1 38
2 13
2 40
2 41
13 24
13 3
13 4
24 6
24 7
35 8
35 11
38 39
38 12
39 40
39 15
40 17
41 42
41 18
42 3
42 20
3 22
4 5
4 23
5 6
5 26
6 28
7 8
7 29
8 9
9 10
9 30
10 11
10 31
11 12
12 14
14 15
14 31
14 32
15 16
16 17
16 33
17 18
18 19
19 20
19 33
20 21
21 22
21 34
22 23
23 25
25 26
25 34
25 36
26 27
27 28
27 37
28 29
29 30
30 37
31 37
32 33
32 36
33 34
36 37
