treewidth/data/WienerArayaGraph.td
c width = 7, time = 0.711457
s td 26 8 42
b 1 14 25 32 33 36 37
b 2 2 14 17 24 25 28 33 37
b 3 2 14 17 24 28 33 37 38
b 4 2 8 10 14 24 28 37 38
b 5 2 8 10 11 14 24 38
b 6 1 2 8 11 24 35 38
b 7 11 12 14 38
b 8 8 10 24 28 30 37
b 9 7 8 24 28 29 30
b 10 8 9 10 30
b 11 10 14 31 37
b 12 2 14 17 33 38 39
b 13 14 15 16 17 33 39
b 14 2 17 39 40
b 15 2 4 17 24 25 28 33 37
b 16 2 4 17 21 24 25 33 42
b 17 2 4 21 22 24 25 42
b 18 2 3 4 13 22 24 42
b 19 4 22 23 25
b 20 2 17 19 21 33 42
b 21 2 17 18 19 41 42
b 22 19 20 21 42
b 23 21 25 33 34
b 24 4 24 25 26 28 37
b 25 4 5 6 24 26 28
b 26 26 27 28 37
5 6
5 7
4 5
8 9
8 10
4 8
4 11
3 4
12 13
12 14
3 12
2 3
17 18
17 19
16 17
20 21
20 22
16 20
16 23
15 16
24 25
24 26
15 24
2 15
1 2
